Route 1: 0 58 12 48 88 17 27 31 0
Route 2: 0 77 68 15 84 91 3 67 45 41 0
Route 3: 0 93 82 25 100 7 8 54 43 23 83 46 38 0
Route 4: 0 30 14 26 97 92 1 62 0
Route 5: 0 34 32 79 13 42 29 4 49 89 0
Route 6: 0 66 57 53 20 64 35 98 11 22 44 0
Route 7: 0 86 55 24 40 69 16 0
Route 8: 0 2 36 94 81 37 47 18 73 5 95 0
Route 9: 0 51 61 65 60 96 33 63 72 0
Route 10: 0 74 52 50 78 10 85 19 76 9 0
Route 11: 0 56 39 70 87 80 90 0
Route 12: 0 75 6 99 71 59 28 21 0
